100
100
3000 3000 3000 3000 3000 3000 3000 3000 3000 3000 3000 3000 3000 3000 3000 3000 3000 3000 3000 3000 3000 3000 3000 3000 3000 3000 3000 3000 3000 3000 3000 3000 3000 3000 3000 3000 3000 3000 3000 3000 3000 3000 3000 3000 3000 3000 3000 3000 3000 3000 3000 3000 3000 3000 3000 3000 3000 3000 3000 3000 3000 3000 3000 3000 3000 3000 3000 3000 3000 3000 3000 3000 3000 3000 3000 3000 3000 3000 3000 3000 3000 3000 3000 3000 3000 3000 3000 3000 3000 3000 3000 3000 3000 3000 3000 3000 3000 3000 3000 3000
0 8 0
0 14 0
0 15 1
0 19 1
0 28 1
0 37 2
0 41 1
0 43 0
0 46 0
0 53 2
1 8 4
1 21 3
1 29 0
1 51 1
1 62 0
1 70 3
1 79 3
1 84 2
1 96 1
1 97 2
2 3 4
2 4 1
2 9 4
2 31 2
2 33 3
2 39 0
2 43 4
2 44 0
2 49 3
2 71 4
3 14 3
3 27 3
3 33 3
3 66 3
3 75 1
3 79 4
3 85 4
3 90 1
3 91 4
3 94 3
4 0 2
4 14 3
4 26 2
4 30 1
4 36 0
4 74 1
4 77 2
4 83 4
4 92 0
4 94 2
5 4 0
5 22 1
5 46 4
5 50 3
5 56 4
5 68 0
5 77 4
5 84 4
5 89 1
5 93 2
6 26 0
6 36 4
6 50 0
6 59 0
6 72 1
6 88 4
6 91 2
6 93 4
6 94 4
6 97 3
7 31 0
7 47 2
7 51 0
7 59 3
7 60 2
7 71 1
7 72 3
7 84 2
7 86 3
7 97 3
8 1 3
8 7 2
8 11 4
8 34 2
8 38 2
8 78 0
8 79 0
8 82 0
8 84 3
8 87 3
9 3 1
9 26 0
9 29 3
9 30 3
9 40 3
9 70 4
9 87 0
9 88 2
9 91 3
9 96 3
10 7 2
10 17 2
10 24 1
10 28 0
10 37 2
10 52 4
10 66 0
10 76 2
10 77 1
10 78 4
11 1 0
11 7 3
11 15 2
11 34 2
11 49 0
11 75 3
11 76 3
11 80 1
11 81 0
11 87 2
12 1 3
12 19 1
12 54 1
12 63 3
12 76 4
12 83 4
12 84 0
12 86 2
12 90 1
12 93 0
13 11 1
13 21 0
13 24 0
13 39 0
13 40 2
13 41 2
13 42 3
13 44 3
13 62 0
13 64 1
14 22 4
14 23 4
14 33 4
14 35 4
14 38 0
14 46 1
14 50 4
14 60 4
14 71 4
14 86 2
15 2 4
15 3 1
15 6 4
15 7 1
15 14 1
15 36 3
15 40 2
15 54 0
15 57 2
15 63 3
16 4 3
16 11 3
16 13 2
16 52 1
16 82 1
16 92 2
16 93 1
16 96 2
16 98 2
16 99 3
17 38 4
17 66 0
17 67 0
17 68 0
17 79 4
17 81 3
17 82 4
17 85 4
17 86 3
17 89 1
18 3 0
18 17 4
18 30 0
18 35 1
18 51 3
18 55 1
18 60 2
18 62 0
18 76 3
18 89 4
19 12 1
19 23 0
19 24 2
19 35 2
19 39 4
19 46 1
19 58 1
19 61 2
19 68 1
19 73 1
20 3 0
20 11 2
20 20 1
20 34 4
20 41 0
20 54 0
20 57 3
20 67 0
20 75 1
20 78 3
21 21 1
21 25 3
21 33 3
21 40 1
21 41 4
21 47 4
21 48 0
21 50 0
21 55 0
21 73 3
22 2 0
22 18 4
22 25 1
22 26 0
22 27 1
22 42 4
22 44 3
22 47 1
22 78 0
22 80 3
23 10 1
23 13 1
23 17 0
23 25 4
23 28 2
23 31 0
23 36 1
23 38 0
23 45 2
23 54 1
24 4 2
24 16 1
24 19 0
24 24 3
24 47 2
24 48 2
24 54 0
24 59 2
24 63 3
24 76 3
25 19 2
25 27 2
25 47 0
25 69 4
25 81 4
25 82 4
25 88 2
25 89 4
25 97 0
25 98 0
26 20 4
26 28 0
26 34 2
26 90 3
26 92 4
26 94 0
26 95 0
26 96 3
26 98 1
26 99 0
27 6 2
27 18 0
27 21 4
27 61 1
27 70 2
27 77 0
27 83 3
27 86 2
27 89 4
27 91 0
28 7 3
28 27 4
28 39 1
28 51 2
28 59 0
28 66 1
28 67 0
28 70 2
28 73 4
28 86 1
29 23 0
29 30 4
29 37 2
29 42 1
29 48 1
29 67 1
29 72 1
29 73 3
29 78 1
29 81 0
30 22 1
30 29 2
30 33 4
30 35 3
30 41 0
30 48 1
30 52 3
30 82 3
30 85 1
30 94 3
31 2 1
31 19 4
31 30 1
31 52 2
31 56 0
31 60 4
31 65 0
31 69 3
31 73 1
31 76 3
32 5 0
32 10 4
32 34 2
32 37 0
32 39 2
32 43 3
32 55 2
32 62 3
32 73 0
32 82 4
33 7 1
33 20 0
33 39 2
33 48 1
33 51 4
33 56 3
33 57 0
33 65 1
33 68 1
33 71 1
34 1 0
34 30 3
34 31 4
34 32 4
34 37 3
34 44 3
34 52 3
34 55 2
34 66 4
34 83 3
35 5 2
35 15 1
35 18 0
35 20 2
35 45 3
35 50 4
35 76 1
35 79 0
35 91 2
35 98 0
36 2 1
36 9 1
36 11 4
36 13 4
36 16 3
36 29 2
36 32 1
36 42 0
36 45 4
36 57 3
37 1 1
37 10 4
37 22 4
37 35 0
37 36 0
37 51 3
37 59 4
37 65 4
37 78 3
37 87 0
38 5 2
38 14 1
38 16 0
38 23 3
38 48 4
38 53 4
38 63 3
38 95 4
38 96 1
38 97 1
39 25 1
39 31 3
39 40 0
39 46 4
39 49 4
39 77 2
39 83 4
39 84 0
39 87 4
39 89 2
40 14 3
40 20 0
40 22 3
40 28 4
40 49 4
40 52 2
40 60 4
40 61 0
40 63 3
40 72 1
41 1 1
41 2 2
41 15 1
41 24 1
41 30 1
41 32 3
41 50 0
41 52 1
41 74 0
41 87 1
42 16 1
42 43 0
42 45 4
42 72 1
42 73 4
42 74 1
42 83 2
42 87 0
42 93 0
42 95 2
43 17 3
43 32 0
43 48 0
43 57 2
43 74 3
43 75 0
43 89 2
43 90 0
43 95 3
43 99 0
44 24 0
44 36 1
44 44 2
44 46 1
44 90 0
44 95 0
44 96 4
44 97 4
44 98 3
44 99 1
45 4 0
45 17 4
45 23 2
45 44 4
45 57 2
45 58 0
45 75 3
45 77 0
45 80 2
45 85 2
46 33 1
46 42 0
46 55 1
46 61 2
46 74 2
46 88 1
46 91 0
46 92 3
46 93 0
46 95 1
47 2 2
47 4 2
47 15 2
47 16 4
47 35 3
47 43 4
47 44 3
47 47 1
47 69 3
47 72 4
48 9 0
48 10 2
48 16 4
48 21 3
48 25 1
48 32 4
48 34 2
48 68 1
48 83 0
48 85 4
49 9 4
49 15 1
49 40 3
49 41 2
49 69 1
49 76 4
49 80 3
49 85 3
49 93 3
49 95 2
50 12 3
50 19 0
50 21 0
50 26 0
50 37 4
50 57 4
50 76 1
50 77 0
50 81 0
50 82 2
51 0 2
51 5 0
51 8 0
51 14 4
51 25 3
51 29 0
51 38 2
51 50 1
51 54 4
51 58 4
52 3 3
52 6 4
52 12 4
52 25 2
52 41 3
52 49 4
52 52 3
52 56 3
52 60 4
52 66 4
53 6 4
53 11 1
53 17 3
53 18 0
53 26 1
53 53 2
53 92 1
53 97 1
53 98 1
53 99 3
54 4 3
54 14 3
54 20 4
54 43 0
54 47 0
54 75 3
54 81 1
54 86 1
54 90 1
54 92 0
55 5 4
55 30 1
55 33 2
55 51 0
55 58 4
55 65 4
55 83 4
55 88 4
55 91 3
55 92 2
56 6 4
56 7 2
56 26 3
56 29 0
56 34 4
56 45 2
56 48 2
56 64 3
56 86 4
56 87 1
57 18 4
57 19 4
57 53 1
57 58 1
57 62 3
57 63 3
57 78 2
57 82 2
57 94 4
57 96 3
58 20 3
58 28 0
58 36 3
58 48 1
58 55 2
58 67 2
58 68 3
58 69 4
58 85 1
58 90 2
59 7 3
59 8 3
59 16 2
59 36 1
59 42 2
59 57 3
59 59 3
59 63 1
59 87 0
59 89 2
60 8 4
60 25 3
60 32 1
60 50 3
60 59 1
60 67 1
60 69 3
60 73 2
60 74 1
60 78 0
61 6 0
61 9 1
61 10 2
61 15 0
61 27 3
61 40 1
61 50 2
61 51 2
61 54 1
61 65 2
62 9 0
62 22 4
62 23 3
62 40 1
62 47 0
62 54 1
62 55 0
62 66 1
62 78 1
62 79 0
63 0 2
63 1 1
63 3 2
63 18 2
63 21 0
63 28 0
63 47 1
63 56 1
63 59 0
63 64 4
64 16 4
64 17 0
64 33 4
64 42 0
64 46 2
64 61 2
64 70 0
64 83 1
64 91 1
64 94 0
65 0 4
65 9 3
65 12 4
65 35 0
65 49 3
65 61 1
65 73 2
65 82 1
65 85 0
65 87 4
66 22 4
66 35 0
66 65 1
66 67 3
66 68 1
66 90 1
66 95 4
66 96 3
66 98 0
66 99 1
67 19 4
67 26 1
67 29 1
67 59 2
67 70 3
67 79 1
67 84 1
67 86 2
67 89 2
67 93 0
68 0 4
68 1 4
68 2 2
68 4 0
68 6 0
68 12 4
68 32 4
68 41 0
68 45 3
68 49 2
69 1 1
69 5 3
69 13 4
69 15 0
69 29 2
69 57 4
69 58 2
69 64 2
69 67 2
69 77 1
70 13 3
70 21 0
70 27 3
70 32 1
70 56 4
70 61 2
70 62 3
70 64 1
70 74 3
70 77 4
71 0 4
71 3 4
71 5 3
71 17 3
71 19 0
71 39 1
71 64 4
71 97 1
71 98 1
71 99 0
72 6 0
72 8 1
72 13 2
72 25 3
72 38 4
72 39 0
72 42 4
72 43 0
72 55 0
72 58 3
73 8 3
73 24 0
73 27 4
73 33 4
73 45 3
73 49 1
73 55 1
73 63 2
73 69 2
73 72 4
74 2 4
74 8 0
74 15 2
74 30 1
74 31 2
74 37 4
74 57 1
74 60 3
74 66 0
74 77 4
75 10 0
75 23 3
75 28 2
75 37 1
75 44 1
75 47 3
75 65 4
75 66 0
75 69 1
75 71 4
76 2 1
76 8 0
76 21 1
76 25 3
76 45 3
76 54 3
76 68 4
76 74 1
76 80 2
76 81 0
77 12 3
77 15 0
77 24 1
77 46 4
77 50 4
77 53 4
77 60 4
77 64 2
77 74 3
77 75 4
78 8 4
78 9 3
78 13 4
78 28 0
78 29 1
78 43 2
78 54 1
78 64 2
78 68 0
78 80 4
79 10 4
79 13 3
79 41 4
79 42 1
79 45 4
79 53 0
79 65 2
79 71 2
79 75 4
79 76 2
80 4 2
80 11 4
80 12 3
80 23 4
80 29 0
80 32 4
80 42 3
80 70 2
80 73 1
80 80 4
81 16 1
81 18 4
81 20 0
81 31 0
81 34 4
81 40 3
81 61 0
81 66 0
81 89 0
81 92 0
82 0 2
82 35 1
82 56 3
82 58 3
82 59 1
82 60 0
82 65 3
82 72 4
82 79 4
82 81 1
83 1 2
83 4 1
83 5 3
83 17 4
83 38 1
83 71 3
83 72 0
83 74 3
83 79 1
83 84 4
84 2 0
84 9 2
84 10 3
84 11 2
84 14 0
84 18 0
84 20 3
84 26 0
84 36 4
84 52 4
85 12 2
85 19 3
85 39 0
85 40 1
85 55 2
85 62 4
85 68 3
85 70 4
85 81 3
85 84 2
86 23 4
86 27 0
86 28 2
86 30 2
86 44 0
86 46 1
86 53 4
86 69 3
86 90 0
86 92 3
87 6 4
87 58 4
87 61 3
87 71 4
87 75 4
87 78 3
87 88 2
87 94 4
87 95 2
87 96 1
88 5 1
88 33 4
88 34 2
88 43 4
88 48 4
88 51 1
88 58 3
88 65 0
88 70 3
88 83 1
89 10 1
89 14 2
89 24 3
89 27 0
89 31 3
89 38 2
89 49 3
89 62 0
89 72 0
89 75 4
90 6 2
90 16 0
90 31 2
90 38 0
90 41 2
90 62 2
90 63 3
90 80 0
90 84 3
90 86 3
91 0 4
91 13 2
91 38 3
91 44 4
91 56 3
91 60 4
91 61 1
91 62 3
91 71 1
91 85 3
92 7 3
92 9 4
92 34 3
92 53 2
92 56 1
92 63 0
92 67 2
92 80 4
92 88 3
92 91 0
93 12 4
93 37 4
93 39 2
93 46 1
93 49 3
93 53 3
93 69 4
93 85 1
93 96 3
93 99 2
94 13 4
94 22 3
94 23 3
94 24 0
94 43 3
94 70 3
94 92 1
94 97 2
94 98 3
94 99 0
95 7 0
95 10 1
95 11 0
95 17 3
95 18 2
95 22 2
95 31 3
95 51 3
95 88 1
95 93 4
96 0 0
96 11 1
96 26 3
96 36 4
96 79 3
96 82 0
96 93 2
96 97 1
96 98 1
96 99 2
97 18 4
97 32 0
97 53 0
97 56 2
97 64 0
97 71 1
97 88 2
97 91 2
97 94 4
97 95 0
98 0 1
98 3 2
98 22 2
98 37 4
98 52 2
98 64 3
98 81 4
98 88 3
98 90 4
98 94 0
99 3 1
99 5 4
99 12 4
99 20 2
99 21 4
99 27 1
99 35 3
99 45 3
99 67 0
99 80 3
